Name:		mgval_0.40_7B
Optimal value:	270
#Vehicles:	4
Capacity:	150
Depot Node:	1
#Nodes:		40
#Edges:		25
#Arcs:		66
#Required N:	23
#Required E:	15
#Required A:	39

ReN.	DEMAND	S. COST
N2	17	17
N3	8	8
N4	4	4
N5	3	3
N6	11	11
N7	4	4
N8	5	5
N9	3	3
N10	8	8
N12	9	9
N13	6	6
N15	12	12
N18	13	13
N20	12	12
N23	4	4
N26	30	30
N27	9	9
N31	18	18
N32	6	6
N33	8	8
N35	27	27
N36	12	12
N39	3	3

ReE.	FROM N.	TO N.	T. COST	DEMAND	S. COST
E11	21	24	3	6	6
E12	15	16	3	8	8
E13	4	5	3	7	7
E14	7	13	1	3	3
E15	23	24	2	7	7
E16	13	18	2	5	5
E17	1	10	8	12	12
E18	13	19	6	12	12
E19	30	31	3	10	10
E20	11	16	3	10	10
E21	37	38	2	4	4
E22	1	8	4	9	9
E23	3	7	2	3	3
E24	17	18	5	8	8
E25	1	40	4	10	10

EDGE	FROM N.	TO N.	T. COST
NrE1	31	38	4
NrE2	26	33	5
NrE3	6	12	2
NrE4	4	38	3
NrE5	27	34	3
NrE6	10	16	4
NrE7	13	17	2
NrE8	18	22	6
NrE9	3	37	4
NrE10	1	35	4

ReA.	FROM N.	TO N.	T. COST	DEMAND	S. COST
A28	34	26	5	8	8
A29	30	29	3	12	12
A30	22	25	1	1	1
A31	6	1	3	4	4
A32	27	28	3	5	5
A33	2	6	2	4	4
A34	28	27	3	6	6
A35	36	37	4	6	6
A36	24	25	2	2	2
A37	11	12	7	4	4
A38	25	24	2	3	3
A39	4	3	2	3	3
A40	13	12	6	4	4
A41	37	36	4	7	7
A42	2	1	2	2	2
A43	30	37	3	2	2
A44	1	11	3	12	12
A45	35	34	6	8	8
A46	32	39	2	4	4
A47	29	36	4	4	4
A48	37	30	3	3	3
A49	25	22	1	2	2
A50	12	17	4	8	8
A51	28	35	10	7	7
A52	8	9	5	12	12
A53	39	38	7	9	9
A54	14	8	7	5	5
A55	21	20	2	3	3
A56	10	9	2	3	3
A57	1	6	3	4	4
A58	21	22	1	4	4
A59	9	15	2	4	4
A60	8	40	5	8	8
A61	20	23	3	4	4
A62	33	1	4	9	9
A63	3	2	5	5	5
A64	39	32	2	4	4
A65	37	31	5	4	4
A66	18	19	4	14	14

ARC	FROM N.	TO N.	T. COST
NrA1	15	9	2
NrA2	23	20	3
NrA3	35	36	6
NrA4	2	36	3
NrA5	7	6	4
NrA6	9	10	2
NrA7	26	27	4
NrA8	3	4	2
NrA9	2	3	5
NrA10	26	34	5
NrA11	33	34	3
NrA12	35	28	10
NrA13	8	14	7
NrA14	6	7	4
NrA15	12	13	6
NrA16	31	32	5
NrA17	36	29	4
NrA18	31	37	5
NrA19	20	17	6
NrA20	15	14	4
NrA21	5	39	2
NrA22	1	2	2
NrA23	12	11	7
NrA24	36	35	6
NrA25	32	31	5
NrA26	6	2	2
NrA27	39	5	2
